unknown
(model
; cardinality of BoundSet is 2
(declare-sort BoundSet 0)
; rep: @uc_BoundSet_0
; rep: @uc_BoundSet_1
; cardinality of UnboundSet is 1
(declare-sort UnboundSet 0)
(declare-fun groundTerm_3 () UnboundSet)
(define-fun IsInTree ((BOUND_VARIABLE_444 BoundSet)) Bool true)
(define-fun HasSmile ((BOUND_VARIABLE_444 BoundSet)) Bool true)
(define-fun IsSmiling ((BOUND_VARIABLE_444 BoundSet)) Bool false)
(define-fun IsSittingInTree ((BOUND_VARIABLE_444 BoundSet)) Bool false)
)
sat
(model
; cardinality of BoundSet is 1
(declare-sort BoundSet 0)
; rep: @uc_BoundSet_0
; cardinality of UnboundSet is 1
(declare-sort UnboundSet 0)
(declare-fun groundTerm_9 () UnboundSet)
(define-fun IsInTree ((BOUND_VARIABLE_516 BoundSet)) Bool true)
(define-fun HasSmile ((BOUND_VARIABLE_516 BoundSet)) Bool true)
(define-fun IsSmiling ((BOUND_VARIABLE_516 BoundSet)) Bool true)
(define-fun IsSittingInTree ((BOUND_VARIABLE_516 BoundSet)) Bool false)
)
